c User generated cnf file
p cnf 13 72
4 -1 13 0 
12 12 -13 0 
6 2 -3 0 
10 3 -7 0 
9 -8 10 0 
-8 9 2 0 
8 13 -10 0 
6 7 -3 0 
4 -4 3 0 
10 13 -9 0 
1 -3 12 0 
6 -2 8 0 
4 -7 7 0 
4 8 -11 0 
7 8 -7 0 
5 13 -10 0 
7 -12 11 0 
7 -12 1 0 
-10 13 10 0 
2 5 -4 0 
-7 2 10 0 
3 -10 4 0 
-1 13 13 0 
9 -9 1 0 
6 9 -9 0 
1 -12 12 0 
10 -5 9 0 
-2 13 3 0 
-7 2 12 0 
12 5 -4 0 
9 -7 9 0 
5 2 -10 0 
-8 2 4 0 
1 6 -1 0 
12 -8 1 0 
12 -4 4 0 
4 5 -1 0 
13 -2 5 0 
10 3 -12 0 
4 -6 11 0 
2 3 -12 0 
7 11 -8 0 
9 5 -9 0 
4 -10 13 0 
8 -9 9 0 
5 11 -10 0 
-1 1 11 0 
-13 7 11 0 
-11 6 5 0 
-5 3 5 0 
3 2 -10 0 
10 -13 6 0 
9 4 -12 0 
8 13 -2 0 
3 -11 7 0 
11 13 -2 0 
6 8 -6 0 
-10 5 13 0 
11 -11 12 0 
4 3 -6 0 
6 3 -10 0 
6 1 -10 0 
2 2 -9 0 
13 1 -11 0 
13 -9 6 0 
7 6 -9 0 
11 -6 1 0 
5 -5 2 0 
-1 7 12 0 
3 -10 1 0 
-13 11 4 0 
6 13 -2 0 
